Geometry = GenFormat {
3 C
O H
1 1  0.00000000000E+00 -0.10000000000E+01  0.00000000000E+00
2 2  0.00000000000E+00  0.00000000000E+00  0.78306400000E+00
3 2  0.00000000000E+00  0.00000000000E+00 -0.78306400000E+00
}
Driver = GeometryOptimization {
  Optimizer = Rational {
    DiagLimit = 1.000000000000000E-002
  }
  MovedAtoms = 1:-1
  MaxSteps = 100
  OutputPrefix = "geom.out"
  Convergence = {
    GradAMax = 1E-4
    Energy = 1.797693134862316E+308
    GradNorm = 1.797693134862316E+308
    GradElem = 1.000000000000000E-004
    DispNorm = 1.797693134862316E+308
    DispElem = 1.797693134862316E+308
  }
  LatticeOpt = No
  AppendGeometries = No
}
Hamiltonian = DFTB {
  Scc = Yes
  SlaterKosterFiles = {
    O-O = "./slakos/mio/mio-1-1/O-O.skf"
    O-H = "./slakos/mio/mio-1-1/O-H.skf"
    H-O = "./slakos/mio/mio-1-1/H-O.skf"
    H-H = "./slakos/mio/mio-1-1/H-H.skf"
  }
  MaxAngularMomentum = {
    O = "p"
    H = "s"
  }
  PolynomialRepulsive = {}
  ShellResolvedSCC = No
  OldSKInterpolation = No
  ReadInitialCharges = No
  InitialCharges = {}
  SCCTolerance = 1.000000000000000E-005
  ConvergentSCCOnly = Yes
  HCorrection = None {}
  SpinPolarisation = {}
  ElectricField = {}
  Solver = RelativelyRobust {}
  Charge = 0.000000000000000E+000
  MaxSCCIterations = 100
  OnSiteCorrection = {}
  Dispersion = {}
  Solvation = {}
  Electrostatics = GammaFunctional {}
  ThirdOrder = No
  ThirdOrderFull = No
  Differentiation = FiniteDiff {
    Delta = 1.220703125000000E-004
  }
  ForceEvaluation = "Traditional"
  Mixer = Broyden {
    MixingParameter = 0.200000000000000
    InverseJacobiWeight = 1.000000000000000E-002
    MinimalWeight = 1.00000000000000
    MaximalWeight = 100000.000000000
    WeightFactor = 1.000000000000000E-002
  }
  Filling = Fermi {
    Temperature = 0.000000000000000E+000
  }
}
Options = {
  WriteDetailedOut = Yes
  WriteAutotestTag = No
  WriteDetailedXML = No
  WriteResultsTag = No
  RandomSeed = 0
  WriteHS = No
  WriteRealHS = No
  MinimiseMemoryUsage = No
  ShowFoldedCoords = No
  TimingVerbosity = 1
  WriteCharges = Yes
  WriteChargesAsText = No
  BinaryAccessTypes = {
 "stream"
  }
}
Analysis = {
  CalculateForces = Yes
  ProjectStates = {}
  WriteEigenvectors = No
  WriteBandOut = Yes
  MullikenAnalysis = Yes
  WriteNetCharges = No
  AtomResolvedEnergies = No
}
ParserOptions = {
  ParserVersion = 13
  WriteHSDInput = Yes
  StopAfterParsing = No
  IgnoreUnprocessedNodes = No
}
Reks = None {}
ExcitedState = {}
Parallel = {
  Groups = 1
  UseOmpThreads = No
  Blacs = BlockSize {
32
  }
}
